p cnf 14 64
4 7 -11 0
2 -9 11 0
-2 6 -12 0
-9 -12 -14 0
1 -4 12 0
-6 -7 -12 0
-4 6 13 0
-4 11 14 0
6 -8 -14 0
4 -6 -13 0
-9 -13 14 0
-7 -9 -10 0
-2 6 10 0
1 -7 8 0
-7 -12 14 0
-5 -11 14 0
2 3 7 0
-8 -10 13 0
-3 -4 12 0
-2 9 13 0
-6 -9 -10 0
-2 -4 -14 0
1 -4 13 0
1 -2 -11 0
-2 8 -13 0
-6 8 -11 0
-6 9 11 0
2 6 -7 0
1 6 14 0
-4 -5 -8 0
5 -10 -12 0
-2 -10 -12 0
-2 4 -8 0
-6 8 11 0
1 -3 -12 0
-1 4 6 0
3 5 10 0
-4 -9 11 0
3 6 10 0
-2 8 12 0
7 -8 -9 0
-3 5 11 0
2 -7 -12 0
3 -10 -14 0
4 5 8 0
2 -4 -7 0
1 11 -13 0
4 6 8 0
8 12 13 0
5 -12 13 0
6 -8 12 0
-3 10 -12 0
3 -5 6 0
-1 2 -8 0
4 -13 14 0
1 -5 8 0
1 8 13 0
5 6 12 0
-5 7 10 0
1 2 10 0
8 -11 -13 0
-6 10 13 0
-4 -5 -9 0
-1 -5 8 0
